(set-logic HORN)
(set-info :source |
  Benchmark: test_safe_2019/mochi/sigma_sum.ml
  Generated by MoCHi
|)
(set-info :status unknown)
(declare-fun |fail_15[20:0]| ( Int) Bool)
(declare-fun |sigma[12:2][15:0]| ( Int  Int) Bool)
(declare-fun |sigma[12:1]| ( Int) Bool)
(assert (not (exists ((x0 Int)) (|fail_15[20:0]| x0))))
(assert (forall ((x0 Int)(x2 Int)(x1 Int)) (=> (and (|sigma[12:2][15:0]| x1 x2) (<= (+ 1 x2) x1)) (|fail_15[20:0]| x0))))
(assert (forall ((x1 Int)(x0 Int)) (=> (and (|sigma[12:1]| x1) (and (= x0 0) (<= x1 0))) (|sigma[12:2][15:0]| x1 x0))))
(assert (forall ((x0 Int)) (|sigma[12:1]| x0)))
(check-sat)
(get-model)
(exit)
